atom_style hybrid granular bond/gran n_bondtypes 1 bonds_per_atom 2
atom_modify	map array
boundary	f f f
newton		off

communicate	single vel yes

units		si

#New pair style
pair_style gran model hertz tangential history
bond_style gran

# processors	1 * *
read_restart post/restart/mixer.75000

neighbor	0.002 bin
neigh_modify	delay 0

echo both

pair_coeff	* *
bond_coeff 1 1.0 0.0 5.0e6 1.0e6 2 0.0 0.001 0.0 1 1.0e10 1.0e10

timestep	0.000005
# timestep 5.0e-6
fix		gravi all gravity 9.81 vector 0.0 0.0 -1.0

# cohesion - no cohesion
#Material properties required for new pair styles
fix 		m1 all property/global youngsModulus peratomtype 193.e6 193.e6
fix 		m2 all property/global poissonsRatio peratomtype 0.3 0.3
fix 		m3 all property/global coefficientRestitution peratomtypepair 2 0.8 0.8 0.8 0.8
fix 		m4 all property/global coefficientFriction peratomtypepair 2 0.5 0.7 0.7 0.5
fix 		m5 all property/global characteristicVelocity scalar 2.


fix		cadDrum all mesh/surface file meshes/drum.stl type 2 scale 0.1
fix meshes all wall/gran model hertz tangential history mesh n_meshes 1 meshes cadDrum


#apply nve integration to all particles that are inserted as single particles
fix		integr all nve/sphere
#fix ts_check all check/timestep/gran 1000 0.1 0.1 
#output settings, include total thermal energy
compute			rke all erotate/sphere
thermo_style	custom step atoms numbonds ke c_rke vol cpu cpuremain
thermo			1000
thermo_modify	lost ignore norm no
compute_modify	thermo_temp dynamic yes

#insert the first particles so that dump is not empty
# run	1
dump	dmp all custom/vtk 1000 post/dump*.vtk id type mol x y z ix iy iz vx vy vz fx fy fz omegax omegay omegaz radius density
dump 	dumpstlmov all mesh/stl 1000 post/drum*.stl cadDrum


fix move all move/mesh mesh cadDrum rotate origin 0. 0. 0. axis  1. 0. 0. period 3.0

run 400000
