atom_style hybrid granular bond/gran n_bondtypes 1 bonds_per_atom 2
atom_modify	map array
boundary	f f f
newton		off

communicate	single vel yes

units		si

processors	1 * *
region		reg block -0.001 0.016 -0.08 0.08 -0.08 0.08 units box
create_box	2 reg

neighbor	0.002 bin
neigh_modify	delay 0

echo both

timestep	0.000005
fix		gravi all gravity 9.81 vector 0.0 0.0 -1.0

# cohesion - no cohesion
#Material properties required for new pair styles
fix 		m1 all property/global youngsModulus peratomtype 193.e6 193.e6
fix 		m2 all property/global poissonsRatio peratomtype 0.3 0.3
fix 		m3 all property/global coefficientRestitution peratomtypepair 2 0.8 0.8 0.8 0.8
fix 		m4 all property/global coefficientFriction peratomtypepair 2 0.5 0.7 0.7 0.5
fix 		m5 all property/global characteristicVelocity scalar 2.

#New pair style
pair_style gran model hertz tangential history
pair_coeff	* *
bond_style gran
bond_coeff 1 1.0 0.0 5.0e6 1.0e6 2 0.0 0.001 0.0 1 1.0e10 1.0e10


fix cadDrum all mesh/surface file meshes/drum.stl type 2 scale 0.1
fix meshes all wall/gran model hertz tangential history mesh n_meshes 1 meshes cadDrum

# region for insertion
region		insertionRegion cylinder x 0.0 0.0 0.075 0.001 0.014 units box


#distributions for insertion
fix pts1 all particletemplate/sphere 15485863 atom_type 1 density constant 3900 radius constant 0.001
fix pts2 all particletemplate/multiplespheres 123457 atom_type 1 density constant 2900 nspheres 3 ntry 100000 spheres &
                0.0 0.0 0.000 0.001 &
                0.0 0.0 0.002 0.001 &
                0.0 0.0 0.004 0.001 &
                bonded yes/explicit nbond_pairs 2 &
                1 2 &
                2 3 bond_type 1
fix pdd1 all particledistribution/discrete 32452843  2 pts1 0.5 pts2 0.5

#particle insertion
fix ins all insert/pack seed 32452867 distributiontemplate pdd1 maxattempt 1000 vel constant 0. 0. 0. &
    orientation random insert_every once overlapcheck yes all_in yes particles_in_region 5000 region insertionRegion


#apply nve integration to all particles that are inserted as single particles
fix		integr all nve/sphere
#fix ts_check all check/timestep/gran 1000 0.1 0.1
#fix bs_check all check/timestep/bond 1000 0.1
#output settings, include total thermal energy
compute			rke all erotate/sphere
thermo_style	custom step atoms numbonds ke c_rke vol cpu cpuremain
thermo			1000
thermo_modify	lost ignore norm no
compute_modify	thermo_temp dynamic yes

#insert the first particles so that dump is not empty
run	1
dump dmp all custom/vtk 1000 post/dump*.vtk id type mol x y z vx vy vz fx fy fz omegax omegay omegaz radius density
dump dumpstlmov all mesh/stl 1000 post/drum*.stl cadDrum

#insert particles
run 75000
write_restart post/restart/mixer.75000
